190 226 225 189 227 228 229 230 231 533 488 489 532 531 530 233 232 234 235 236 237 240 239 238 246 247 245 244 243 242 241 248 249 250 251 252 254 253 255 256 257 300 301 302 508 507 506 307 303 304 306 305 318 317 319 320 321 297 298 299 258 259 260 261 262 263 264 265 266 267 268 270 296 295 294 293 291 292 269 271 272 273 274 275 290 289 288 276 277 278 279 282 281 280 287 286 285 284 283 334 335 336 337 338 339 333 332 331 330 340 341 344 343 342 366 367 368 369 370 372 327 328 329 326 325 324 323 322 373 371 396 395 394 397 398 399 400 401 402 403 404 406 407 408 405 409 384 383 410 418 419 417 411 412 356 355 353 354 357 358 359 360 361 362 363 364 365 345 346 347 348 349 350 351 352 413 414 415 416 420 421 422 423 424 425 426 427 428 429 430 432 433 434 435 436 437 438 454 455 456 457 458 2 3 4 1 0 5 573 572 571 460 459 461 462 463 464 465 466 467 468 469 470 496 497 500 499 452 453 440 441 450 449 448 447 446 442 439 443 444 445 431 382 386 385 387 388 389 390 391 393 392 381 380 379 378 377 376 375 374 315 314 316 313 312 451 311 310 309 308 505 504 503 502 501 498 519 518 520 517 516 515 514 522 521 523 526 527 513 509 510 511 512 528 529 490 491 492 493 525 524 494 495 471 472 473 474 570 569 568 26 27 29 28 25 24 21 20 19 16 18 17 8 7 6 9 10 11 15 14 13 12 23 22 31 30 32 33 34 35 36 37 38 40 41 39 42 43 44 47 48 49 50 84 51 52 54 53 55 56 83 82 81 57 58 59 60 61 63 64 62 78 79 80 87 86 85 90 89 88 77 76 75 74 73 119 118 106 105 104 95 96 97 94 93 92 91 46 45 555 556 557 558 559 550 551 101 100 552 553 554 98 99 102 103 547 546 545 548 549 560 561 562 563 564 565 566 567 475 476 477 478 479 480 481 482 483 484 485 486 487 534 535 536 537 539 538 540 187 188 186 185 183 182 181 180 179 178 177 176 544 543 541 542 107 110 111 109 108 173 174 175 172 170 171 169 168 163 162 160 161 113 112 114 115 116 117 121 120 122 123 71 72 65 66 67 68 70 69 124 125 126 127 128 138 129 130 131 132 133 134 135 136 137 139 140 141 151 150 149 152 148 147 142 143 144 146 145 158 157 153 156 159 155 154 165 164 167 166 198 199 200 201 202 204 203 208 207 206 205 197 196 195 194 209 210 211 212 213 214 215 216 217 223 224 222 221 220 218 219 193 184 192 191